p cnf 58 48
-1 2 3 4 6 7 8 23 29 30 31 32 33 34 35 36 37 38 39 40 41 42 43 44 45 46 50 -56 -57 -58 0 
-2 1 3 4 6 7 8 23 29 30 31 32 33 34 35 36 37 38 39 40 41 42 43 44 45 46 50 -56 -57 -58 0 
-3 1 2 4 6 7 8 23 29 30 31 32 33 34 35 36 37 38 39 40 41 42 43 44 45 46 50 -56 -57 -58 0 
-4 1 2 3 6 7 8 23 29 30 31 32 33 34 35 36 37 38 39 40 41 42 43 44 45 46 50 -56 -57 -58 0 
-5 50 -56 -57 -58 0 
-6 1 2 3 4 7 8 23 29 30 31 32 33 34 35 36 37 38 39 40 41 42 43 44 45 46 50 -56 -57 -58 0 
-7 1 2 3 4 6 8 23 29 30 31 32 33 34 35 36 37 38 39 40 41 42 43 44 45 46 50 -56 -57 -58 0 
-8 1 2 3 4 6 7 23 29 30 31 32 33 34 35 36 37 38 39 40 41 42 43 44 45 46 50 -56 -57 -58 0 
-9 16 51 -52 -53 -54 -55 0 
-10 -11 -12 -13 52 -51 -53 -54 -55 0 
-14 -12 53 -51 -52 -54 -55 0 
-15 -12 54 -51 -52 -53 -55 0 
-16 9 54 -51 -52 -53 -55 0 
-10 -11 54 -51 -52 -53 -55 0 
-17 -12 -18 54 -51 -52 -53 -55 0 
-19 -16 9 54 -51 -52 -53 -55 0 
-20 52 -51 -53 -54 -55 0 
-21 53 -51 -52 -54 -55 0 
-12 54 -51 -52 -53 -55 0 
-22 48 -12 55 -51 -52 -53 -54 0 
-23 1 2 3 4 6 7 8 29 30 31 32 33 34 35 36 37 38 39 40 41 42 43 44 45 46 -12 53 -51 -52 -54 -55 0 
-12 -24 51 -52 -53 -54 -55 0 
-12 -25 51 -52 -53 -54 -55 0 
-26 -27 49 56 -50 -57 -58 0 
-12 53 -51 -52 -54 -55 0 
-28 -12 54 -51 -52 -53 -55 0 
-29 1 2 3 4 6 7 8 23 30 31 32 33 34 35 36 37 38 39 40 41 42 43 44 45 46 57 -50 -56 -58 0 
-30 1 2 3 4 6 7 8 23 29 31 32 33 34 35 36 37 38 39 40 41 42 43 44 45 46 57 -50 -56 -58 0 
-31 1 2 3 4 6 7 8 23 29 30 32 33 34 35 36 37 38 39 40 41 42 43 44 45 46 57 -50 -56 -58 0 
-32 1 2 3 4 6 7 8 23 29 30 31 33 34 35 36 37 38 39 40 41 42 43 44 45 46 57 -50 -56 -58 0 
-33 1 2 3 4 6 7 8 23 29 30 31 32 34 35 36 37 38 39 40 41 42 43 44 45 46 57 -50 -56 -58 0 
-34 1 2 3 4 6 7 8 23 29 30 31 32 33 35 36 37 38 39 40 41 42 43 44 45 46 57 -50 -56 -58 0 
-35 1 2 3 4 6 7 8 23 29 30 31 32 33 34 36 37 38 39 40 41 42 43 44 45 46 57 -50 -56 -58 0 
-36 1 2 3 4 6 7 8 23 29 30 31 32 33 34 35 37 38 39 40 41 42 43 44 45 46 57 -50 -56 -58 0 
-37 1 2 3 4 6 7 8 23 29 30 31 32 33 34 35 36 38 39 40 41 42 43 44 45 46 57 -50 -56 -58 0 
-38 1 2 3 4 6 7 8 23 29 30 31 32 33 34 35 36 37 39 40 41 42 43 44 45 46 57 -50 -56 -58 0 
-39 1 2 3 4 6 7 8 23 29 30 31 32 33 34 35 36 37 38 40 41 42 43 44 45 46 57 -50 -56 -58 0 
-40 1 2 3 4 6 7 8 23 29 30 31 32 33 34 35 36 37 38 39 41 42 43 44 45 46 57 -50 -56 -58 0 
-41 1 2 3 4 6 7 8 23 29 30 31 32 33 34 35 36 37 38 39 40 42 43 44 45 46 57 -50 -56 -58 0 
-42 1 2 3 4 6 7 8 23 29 30 31 32 33 34 35 36 37 38 39 40 41 43 44 45 46 57 -50 -56 -58 0 
-43 1 2 3 4 6 7 8 23 29 30 31 32 33 34 35 36 37 38 39 40 41 42 44 45 46 57 -50 -56 -58 0 
-44 1 2 3 4 6 7 8 23 29 30 31 32 33 34 35 36 37 38 39 40 41 42 43 45 46 57 -50 -56 -58 0 
-45 1 2 3 4 6 7 8 23 29 30 31 32 33 34 35 36 37 38 39 40 41 42 43 44 46 57 -50 -56 -58 0 
-46 1 2 3 4 6 7 8 23 29 30 31 32 33 34 35 36 37 38 39 40 41 42 43 44 45 57 -50 -56 -58 0 
-47 -12 54 -51 -52 -53 -55 0 
-48 22 -12 54 -51 -52 -53 -55 0 
-49 27 58 -50 -56 -57 0 
-49 27 56 -50 -57 -58 0 
